
Gurobi 11.0.1 (mac64[arm], C++) logging started Thu May  2 13:51:23 2024


Gurobi 11.0.1 (mac64[arm], C++) logging started Thu May  2 13:51:23 2024


Gurobi 11.0.1 (mac64[arm], C++) logging started Thu May  2 13:51:24 2024


Gurobi 11.0.1 (mac64[arm], C++) logging started Thu May  2 13:51:24 2024


Gurobi 11.0.1 (mac64[arm], C++) logging started Thu May  2 13:51:25 2024


Gurobi 11.0.1 (mac64[arm], C++) logging started Thu May  2 13:51:25 2024


Gurobi 11.0.1 (mac64[arm], C++) logging started Thu May  2 13:51:26 2024


Gurobi 11.0.1 (mac64[arm], C++) logging started Thu May  2 13:51:26 2024


Gurobi 11.0.1 (mac64[arm], C++) logging started Thu May  2 13:51:27 2024


Gurobi 11.0.1 (mac64[arm], C++) logging started Thu May  2 13:51:27 2024


Gurobi 11.0.1 (mac64[arm], C++) logging started Thu May  2 13:51:27 2024


Gurobi 11.0.1 (mac64[arm], C++) logging started Thu May  2 13:51:28 2024


Gurobi 11.0.1 (mac64[arm], C++) logging started Thu May  2 13:51:28 2024


Gurobi 11.0.1 (mac64[arm], C++) logging started Thu May  2 13:51:29 2024


Gurobi 11.0.1 (mac64[arm], C++) logging started Thu May  2 13:51:29 2024


Gurobi 11.0.1 (mac64[arm], C++) logging started Thu May  2 13:51:30 2024


Gurobi 11.0.1 (mac64[arm], C++) logging started Thu May  2 13:51:30 2024


Gurobi 11.0.1 (mac64[arm], C++) logging started Thu May  2 13:51:31 2024


Gurobi 11.0.1 (mac64[arm], C++) logging started Thu May  2 13:51:31 2024


Gurobi 11.0.1 (mac64[arm], C++) logging started Thu May  2 13:51:32 2024


Gurobi 11.0.1 (mac64[arm], C++) logging started Thu May  2 13:52:03 2024


Gurobi 11.0.1 (mac64[arm], C++) logging started Thu May  2 13:52:04 2024


Gurobi 11.0.1 (mac64[arm], C++) logging started Thu May  2 13:52:05 2024


Gurobi 11.0.1 (mac64[arm], C++) logging started Thu May  2 13:52:05 2024


Gurobi 11.0.1 (mac64[arm], C++) logging started Thu May  2 13:52:05 2024


Gurobi 11.0.1 (mac64[arm], C++) logging started Thu May  2 13:52:06 2024


Gurobi 11.0.1 (mac64[arm], C++) logging started Thu May  2 13:52:06 2024


Gurobi 11.0.1 (mac64[arm], C++) logging started Thu May  2 13:52:07 2024


Gurobi 11.0.1 (mac64[arm], C++) logging started Thu May  2 13:52:07 2024


Gurobi 11.0.1 (mac64[arm], C++) logging started Thu May  2 13:52:08 2024


Gurobi 11.0.1 (mac64[arm], C++) logging started Thu May  2 13:52:08 2024


Gurobi 11.0.1 (mac64[arm], C++) logging started Thu May  2 13:52:09 2024


Gurobi 11.0.1 (mac64[arm], C++) logging started Thu May  2 13:52:09 2024


Gurobi 11.0.1 (mac64[arm], C++) logging started Thu May  2 13:52:09 2024


Gurobi 11.0.1 (mac64[arm], C++) logging started Thu May  2 13:52:10 2024


Gurobi 11.0.1 (mac64[arm], C++) logging started Thu May  2 13:52:10 2024


Gurobi 11.0.1 (mac64[arm], C++) logging started Thu May  2 13:52:11 2024


Gurobi 11.0.1 (mac64[arm], C++) logging started Thu May  2 13:52:11 2024


Gurobi 11.0.1 (mac64[arm], C++) logging started Thu May  2 13:52:12 2024


Gurobi 11.0.1 (mac64[arm], C++) logging started Thu May  2 13:52:12 2024

